# avogadro generated ORCA file
# C28H24O4 | Frequencies | HF/6-31G(d)
# 
! Opt Freq HF 6-31G(d) 

%maxcore 3072

%pal
   nprocs 4
end

%output
   print[p_mos] 1
   print[p_basis] 2
end

%plots
    Format Cube
    ElDens("electron-density.cube");
    MO("homo.cube",112,0);
    MO("lumo.cube",113,0);
end

* xyz 0 1
   O      0.100000   -1.891400    1.861900
   O      1.886200    0.099800    1.858800
   O     -1.890200   -0.099900    1.861400
   O     -0.100800    1.893300    1.863100
   C      2.656700   -2.389400    0.721600
   C     -2.389600   -2.656500    0.722100
   C      2.388900    2.656700    0.722000
   C     -2.657200    2.389800    0.722500
   C      1.377600   -2.932200    0.133600
   C      3.063200   -1.060200    0.135100
   C     -2.933700   -1.377600    0.134900
   C      1.059700    3.061100    0.133600
   C     -1.060300   -3.061500    0.134000
   C      2.933900    1.377800    0.135400
   C     -3.063300    1.060400    0.135400
   C     -1.378200    2.932500    0.134100
   C      0.136800   -2.584900    0.688500
   C      2.584300    0.136900    0.688300
   C     -2.586300   -0.136800    0.689600
   C     -0.137500    2.585900    0.689300
   C      1.409200   -3.759900   -0.995600
   C      3.894100   -1.003800   -0.990900
   C     -3.762400   -1.409300   -0.993600
   C      1.004000    3.885700   -0.997000
   C     -1.004700   -3.888100   -0.995100
   C      3.766000    1.410000   -0.990600
   C     -3.890900    1.004500   -0.993000
   C     -1.409800    3.758700   -0.996500
   C      0.224000   -4.236500   -1.554900
   C      4.244900    0.225200   -1.548600
   C     -4.239700   -0.224300   -1.552400
   C     -0.224800    4.233800   -1.556900
   H      3.457700   -3.110700    0.497900
   H      2.661500   -2.394200    1.814700
   H     -2.329800   -2.590600    1.815900
   H     -3.115900   -3.464400    0.554300
   H      2.385700    2.635300    1.817700
   H      3.110300    3.461100    0.512800
   H     -3.460600    3.111900    0.513000
   H     -2.635300    2.387500    1.818000
   H      2.357000   -4.036700   -1.450200
   H      4.271400   -1.917100   -1.444100
   H     -4.039100   -2.357700   -1.447000
   H      1.917600    4.259900   -1.451900
   H     -1.918800   -4.263200   -1.448400
   H      4.044500    2.358200   -1.443300
   H     -4.266800    1.918100   -1.446800
   H     -2.357900    4.034700   -1.451100
   H      0.257700   -4.876900   -2.431700
   H      4.888600    0.259500   -2.422800
   H     -4.880800   -0.258200   -2.428600
   H     -0.258500    4.872700   -2.434700
   H      0.838800   -2.165400    2.427000
   H      2.233000   -0.607300    2.424600
   H     -1.663200    0.798900    2.132400
   H      0.797600    1.661400    2.131200
*


